\ENCODING=ISO-8859-1
\Problem name: IloCplex

Minimize
 obj1: - 2.225 x_06 - 2.075 x_03 - 3.375 x_09 - 0.125 x_14 - 0.925 x_10
       - 0.925 x_00 - 0.125 x_04 - 2.275 x_07 - 1.975 x_01 + 0.975 x_02
       - 1.325 x_08 - 2.175 x_05 - 2.225 x_16 - 2.075 x_13 - 2.275 x_17
       - 1.975 x_11 - 3.375 x_19 + 0.975 x_12 - 1.325 x_18 - 2.175 x_15
Subject To
 c1:   u_08 + u_09 <= 4.834162449293
 c2:   u_03 + u_07 <= 5.18865937668451
 c3:   u_08 + u_00 + u_04 + u_05 <= 4.06710007160697
 c4:   u_09 + u_07 + u_04 <= 4.93546533899453
 c5:   u_12 + u_15 <= 4.50312032718453
 c6:   u_12 + u_13 <= 5.86442975387812
 c7:   u_16 + u_17 <= 5.058909924949
 c8:   u_18 + u_19 <= 6.27039674968902
 c9:   x_06 + x_03 >= 1
 c10:  - 300 hap_1_0 + ap_0 <= 0
 c11:  x_06 + x_03 + 2 hap_1_0 <= 3
 c12:  - x_09 >= -1
 c13:  - 300 han_2_0 + an_0 <= 0
 c14:  - x_09 + 2 han_2_0 <= 1
 c15:  x_14 >= 1
 c16:  - 300 hap_1_1 + ap_1 <= 0
 c17:  x_14 + 2 hap_1_1 <= 3
 c18:  - x_10 >= -1
 c19:  - 300 han_2_1 + an_1 <= 0
 c20:  - x_10 + 2 han_2_1 <= 1
 c21:  - x_00 >= 0
 c22:  - 300 hb_01 + b_01 <= 0
 c23:  - x_00 + 2 hb_01 <= 2
 c24:  x_04 >= 0
 c25:  - 300 hb_04 + b_04 <= 0
 c26:  x_04 + 2 hb_04 <= 2
 c27:  x_07 - x_01 >= 0
 c28:  - 300 hb_05 + b_05 <= 0
 c29:  x_07 - x_01 + 2 hb_05 <= 2
 c30:  x_09 - x_02 >= 0
 c31:  - 300 hb_06 + b_06 <= 0
 c32:  x_09 - x_02 + 2 hb_06 <= 2
 c33:  - x_03 - x_04 + x_01 + x_02 + x_08 - x_05 >= 0
 c34:  - 300 hb_07 + b_07 <= 0
 c35:  - x_03 - x_04 + x_01 + x_02 + x_08 - x_05 + 2 hb_07 <= 2
 c36:  - x_06 - x_07 - x_08 + x_05 >= 0
 c37:  - 300 hb_08 + b_08 <= 0
 c38:  - x_06 - x_07 - x_08 + x_05 + 2 hb_08 <= 2
 c39:  x_16 + x_13 >= 0
 c40:  - 300 hb_13 + b_13 <= 0
 c41:  x_16 + x_13 + 2 hb_13 <= 2
 c42:  x_17 - x_11 >= 0
 c43:  - 300 hb_15 + b_15 <= 0
 c44:  x_17 - x_11 + 2 hb_15 <= 2
 c45:  x_19 - x_12 >= 0
 c46:  - 300 hb_16 + b_16 <= 0
 c47:  x_19 - x_12 + 2 hb_16 <= 2
 c48:  - x_14 - x_13 + x_11 + x_12 + x_18 - x_15 >= 0
 c49:  - 300 hb_17 + b_17 <= 0
 c50:  - x_14 - x_13 + x_11 + x_12 + x_18 - x_15 + 2 hb_17 <= 2
 c51:  - x_16 - x_17 - x_18 + x_15 >= 0
 c52:  - 300 hb_18 + b_18 <= 0
 c53:  - x_16 - x_17 - x_18 + x_15 + 2 hb_18 <= 2
 c54:  x_10 - x_19 >= 0
 c55:  - 300 hb_19 + b_19 <= 0
 c56:  x_10 - x_19 + 2 hb_19 <= 2
 c57:  - u_00 - b_01 <= 0.075
 c58:  x_00 - 2 hdu_00 <= 0
 c59:  u_00 + b_01 + 300 hdu_00 <= 299.925
 c60:  - b_05 + b_07 - u_01 <= 0.025
 c61:  x_01 - 2 hdu_01 <= 0
 c62:  b_05 - b_07 + u_01 + 300 hdu_01 <= 299.975
 c63:  - b_06 + b_07 - u_02 <= 1.975
 c64:  x_02 - 2 hdu_02 <= 0
 c65:  b_06 - b_07 + u_02 + 300 hdu_02 <= 298.025
 c66:  - u_03 + ap_0 - b_07 <= 0.925
 c67:  x_03 - 2 hdu_03 <= 0
 c68:  u_03 - ap_0 + b_07 + 300 hdu_03 <= 299.075
 c69:  - u_04 + b_04 - b_07 <= 0.875
 c70:  x_04 - 2 hdu_04 <= 0
 c71:  u_04 - b_04 + b_07 + 300 hdu_04 <= 299.125
 c72:  - u_05 - b_07 + b_08 <= -0.175
 c73:  x_05 - 2 hdu_05 <= 0
 c74:  u_05 + b_07 - b_08 + 300 hdu_05 <= 300.175
 c75:  ap_0 - b_08 - u_06 <= 0.775
 c76:  x_06 - 2 hdu_06 <= 0
 c77:  - ap_0 + b_08 + u_06 + 300 hdu_06 <= 299.225
 c78:  - u_07 + b_05 - b_08 <= -0.275
 c79:  x_07 - 2 hdu_07 <= 0
 c80:  u_07 - b_05 + b_08 + 300 hdu_07 <= 300.275
 c81:  - u_08 + b_07 - b_08 <= -0.325
 c82:  x_08 - 2 hdu_08 <= 0
 c83:  u_08 - b_07 + b_08 + 300 hdu_08 <= 300.325
 c84:  - u_09 - an_0 + b_06 <= -0.375
 c85:  x_09 - 2 hdu_09 <= 0
 c86:  u_09 + an_0 - b_06 + 300 hdu_09 <= 300.375
 c87:  - an_1 + b_19 - u_10 <= 0.075
 c88:  x_10 - 2 hdu_10 <= 0
 c89:  an_1 - b_19 + u_10 + 300 hdu_10 <= 299.925
 c90:  - b_15 + b_17 - u_11 <= 0.025
 c91:  x_11 - 2 hdu_11 <= 0
 c92:  b_15 - b_17 + u_11 + 300 hdu_11 <= 299.975
 c93:  - u_12 - b_16 + b_17 <= 1.975
 c94:  x_12 - 2 hdu_12 <= 0
 c95:  u_12 + b_16 - b_17 + 300 hdu_12 <= 298.025
 c96:  - u_13 + b_13 - b_17 <= 0.925
 c97:  x_13 - 2 hdu_13 <= 0
 c98:  u_13 - b_13 + b_17 + 300 hdu_13 <= 299.075
 c99:  ap_1 - b_17 - u_14 <= 0.875
 c100: x_14 - 2 hdu_14 <= 0
 c101: - ap_1 + b_17 + u_14 + 300 hdu_14 <= 299.125
 c102: - u_15 - b_17 + b_18 <= -0.175
 c103: x_15 - 2 hdu_15 <= 0
 c104: u_15 + b_17 - b_18 + 300 hdu_15 <= 300.175
 c105: - u_16 + b_13 - b_18 <= 0.775
 c106: x_16 - 2 hdu_16 <= 0
 c107: u_16 - b_13 + b_18 + 300 hdu_16 <= 299.225
 c108: - u_17 + b_15 - b_18 <= -0.275
 c109: x_17 - 2 hdu_17 <= 0
 c110: u_17 - b_15 + b_18 + 300 hdu_17 <= 300.275
 c111: - u_18 + b_17 - b_18 <= -0.325
 c112: x_18 - 2 hdu_18 <= 0
 c113: u_18 - b_17 + b_18 + 300 hdu_18 <= 300.325
 c114: - u_19 + b_16 - b_19 <= -0.375
 c115: x_19 - 2 hdu_19 <= 0
 c116: u_19 - b_16 + b_19 + 300 hdu_19 <= 300.375
Bounds
 0 <= u_08 <= 3
 0 <= u_09 <= 1
 0 <= u_03 <= 3
 0 <= u_07 <= 1
 0 <= u_00 <= 2
 0 <= u_04 <= 2
 0 <= u_05 <= 2
 0 <= u_12 <= 3
 0 <= u_15 <= 1
 0 <= u_13 <= 3
 0 <= u_16 <= 1
 0 <= u_17 <= 1
 0 <= u_18 <= 2
 0 <= u_19 <= 2
 0 <= x_06 <= 1
 0 <= x_03 <= 1
 0 <= hap_1_0 <= 1
 0 <= x_09 <= 1
 0 <= han_2_0 <= 1
 0 <= x_14 <= 1
 0 <= hap_1_1 <= 1
 0 <= x_10 <= 1
 0 <= han_2_1 <= 1
 0 <= x_00 <= 1
 0 <= hb_01 <= 1
 0 <= x_04 <= 1
 0 <= hb_04 <= 1
 0 <= x_07 <= 1
 0 <= x_01 <= 1
 0 <= hb_05 <= 1
 0 <= x_02 <= 1
 0 <= hb_06 <= 1
 0 <= x_08 <= 1
 0 <= x_05 <= 1
 0 <= hb_07 <= 1
 0 <= hb_08 <= 1
 0 <= x_16 <= 1
 0 <= x_13 <= 1
 0 <= hb_13 <= 1
 0 <= x_17 <= 1
 0 <= x_11 <= 1
 0 <= hb_15 <= 1
 0 <= x_19 <= 1
 0 <= x_12 <= 1
 0 <= hb_16 <= 1
 0 <= x_18 <= 1
 0 <= x_15 <= 1
 0 <= hb_17 <= 1
 0 <= hb_18 <= 1
 0 <= hb_19 <= 1
 0 <= hdu_00 <= 1
      u_01 = 0
 0 <= hdu_01 <= 1
 0 <= u_02 <= 3
 0 <= hdu_02 <= 1
 0 <= hdu_03 <= 1
 0 <= hdu_04 <= 1
 0 <= hdu_05 <= 1
 0 <= u_06 <= 2
 0 <= hdu_06 <= 1
 0 <= hdu_07 <= 1
 0 <= hdu_08 <= 1
 0 <= hdu_09 <= 1
 0 <= u_10 <= 1
 0 <= hdu_10 <= 1
 0 <= u_11 <= 3
 0 <= hdu_11 <= 1
 0 <= hdu_12 <= 1
 0 <= hdu_13 <= 1
 0 <= u_14 <= 2
 0 <= hdu_14 <= 1
 0 <= hdu_15 <= 1
 0 <= hdu_16 <= 1
 0 <= hdu_17 <= 1
 0 <= hdu_18 <= 1
 0 <= hdu_19 <= 1
Binaries
 hap_1_0  han_2_0  hap_1_1  han_2_1  hb_01  hb_04  hb_05  hb_06  hb_07  hb_08 
 hb_13  hb_15  hb_16  hb_17  hb_18  hb_19  hdu_00  hdu_01  hdu_02  hdu_03 
 hdu_04  hdu_05  hdu_06  hdu_07  hdu_08  hdu_09  hdu_10  hdu_11  hdu_12 
 hdu_13  hdu_14  hdu_15  hdu_16  hdu_17  hdu_18  hdu_19 
End
